%
% Generated Sudoku 25x25
% Density approximation: 0.40
%
x = array2d(1..n, 1..n, [
   _,   _,   _,   _,   _,  10,   _,   _,   _,  11,   _,   5,   _,   2,   _,  15,   3,   8,   _,  22,   _,  17,  18,   _,  14,
   _,   _,   _,  12,   _,   _,   _,   _,   _,   _,   _,   _,   6,   _,  18,  21,   2,  25,   _,   5,   _,  19,   3,   _,   _,
   2,   _,   _,   _,   _,   _,  24,   4,  25,   _,   _,   9,   _,   _,  17,   _,   _,   _,   _,   1,   _,   _,  22,   _,   _,
  25,   _,  21,  19,  16,   5,   1,   9,   _,  18,  10,   _,   _,   _,   _,   _,   _,  12,   _,   _,  20,   _,  15,   _,   _,
  18,  13,  17,   _,   1,   2,   _,   _,  14,  22,   _,   _,   _,  15,   _,  24,   _,   _,   _,   7,   _,   _,  21,   _,   5,
   5,   _,   _,   2,   _,  24,   _,   _,   _,   _,   _,   _,   _,  10,  21,   _,   6,   4,   3,  23,  12,   _,   _,   _,   _,
   6,   _,  23,   _,  11,  21,   7,   _,   _,   _,   _,   8,   _,  22,   _,  25,  12,   _,   5,  24,   _,   _,   2,   _,   _,
   8,   _,   _,   _,   _,   _,   _,   _,   _,   _,   _,  17,   4,  24,  20,   _,   _,   _,  22,  15,   _,   _,   _,   _,   3,
   _,  15,  14,  17,  22,   _,   _,  20,   _,   _,   _,  16,   _,  18,   5,   _,   _,   _,   _,   _,   7,   _,  23,   _,   _,
   _,  18,   _,   _,   _,   9,   _,   _,   8,   2,   _,   _,  25,   _,   _,   _,   _,   _,   7,   _,   _,   _,  19,   5,   _,
  24,   1,  22,   9,  25,   7,  16,  18,   _,  21,   8,   _,   _,   _,   _,   _,   _,   3,   _,   _,   _,  10,   _,  12,   6,
   _,   _,   _,   _,   _,   _,  20,  25,   _,   _,  11,  21,   _,  12,   _,   9,   _,   _,   _,  18,   _,   _,   _,   _,   _,
  13,   _,   _,   _,  18,  12,   _,  14,   _,  24,   _,  19,  23,   _,  10,   4,  21,   _,  17,   6,   _,  15,   _,   2,   _,
  17,   _,   _,   6,   _,   _,   _,   _,   5,  19,   _,   _,   _,   4,   _,   _,   _,   _,   _,   _,   9,  18,  24,  16,  13,
   4,  12,   _,   _,  15,   _,   _,   _,   _,   8,   _,   2,   1,   _,   _,   7,   _,   _,   _,   _,   _,   _,   _,   _,  20,
   _,  14,   _,   _,   _,   _,  25,   _,   6,   _,  17,   _,   _,   _,   _,   _,   5,  11,  21,   _,  15,   _,   _,  10,   1,
  23,   _,  18,  25,   _,   _,   _,   _,   _,  14,   5,   _,   _,  21,  15,   _,   _,   _,   8,   _,   _,   _,   _,   _,   _,
   _,   7,   _,   _,   5,   _,   _,  11,   _,   _,   _,   _,   9,  25,   _,   _,   _,  15,   6,   _,  18,   _,   _,   _,   _,
   _,   _,  24,   _,   _,  23,   3,   5,   9,   _,   _,   _,   _,   _,   _,   _,  19,   _,  25,   _,   _,   _,   _,  13,   _,
  10,   3,   _,   1,   _,   8,  21,   _,   _,  12,   _,   _,  16,  19,   _,  22,  13,   _,   _,   _,   _,   _,   _,  25,  11,
  14,  17,  15,   _,   3,  25,   _,   _,   2,   _,  16,   _,   _,   7,  12,   _,   4,   _,   9,   _,  11,   _,   _,   _,   _,
   _,   _,  10,   4,  20,  15,   _,   _,   _,   _,   _,   _,   _,   _,   _,  18,   _,  24,  14,   3,   8,   _,   _,  17,   _,
   _,   _,   _,  18,   _,   _,   _,  10,   _,  20,   2,   _,  15,   _,   _,   _,   _,  16,   _,  13,  22,   6,   _,   7,   _,
  11,   _,   _,   _,   2,   _,   _,   _,   _,  23,   1,   _,   _,   5,   _,   _,  25,   _,   _,   _,   _,  13,   _,   _,  15,
  12,   _,   _,   _,   9,   _,   _,  16,   _,   6,   _,   _,   _,   3,   _,  23,   _,   2,   _,  10,  19,   _,  25,  18,   _
]);

n = 25;
